120
150
97
60
24
27
53
39
58
57
78
72
60
90
38
25
52
48
68
36
80
68
38
44
35
42
25
94
83
57
47
58
44
98
57
90
42
52
48
46
97
85
28
53
48
68
36
70
80
57
93
36
80
91
58
35
27
58
39
53
61
53
41
35
28
58
48
87
48
46
95
55
44
80
34
66
83
60
90
58
91
44
70
66
83
58
46
57
36
68
42
57
70
80
46
38
36
85
95
64
52
58
91
53
97
97
68
66
48
36
53
97
36
91
91
72
39
58
58
39
60
90
